(declare-const X String)
; /\x2fb\x2fshoe\x2f[0-9]{3,5}$/U
(assert (not (str.in_re X (re.++ (str.to_re "//b/shoe/") ((_ re.loop 3 5) (re.range "0" "9")) (str.to_re "/U\u{a}")))))
; /filename=[^\n]*\x2eair/i
(assert (str.in_re X (re.++ (str.to_re "/filename=") (re.* (re.comp (str.to_re "\u{a}"))) (str.to_re ".air/i\u{a}"))))
; \x3Cchat\x3EHost\x3Atid\x3D\x7B
(assert (not (str.in_re X (str.to_re "<chat>\u{1b}Host:tid={\u{a}"))))
; ^[^<>`~!/@\#},.?"-$%:;)(_ ^{&*=|'+]+$
(assert (str.in_re X (re.++ (re.+ (re.union (str.to_re "<") (str.to_re ">") (str.to_re "`") (str.to_re "~") (str.to_re "!") (str.to_re "/") (str.to_re "@") (str.to_re "#") (str.to_re "}") (str.to_re ",") (str.to_re ".") (str.to_re "?") (re.range "\u{22}" "$") (str.to_re "%") (str.to_re ":") (str.to_re ";") (str.to_re ")") (str.to_re "(") (str.to_re "_") (str.to_re " ") (str.to_re "^") (str.to_re "{") (str.to_re "&") (str.to_re "*") (str.to_re "=") (str.to_re "|") (str.to_re "'") (str.to_re "+"))) (str.to_re "\u{a}"))))
; ^(([a-zA-Z]:|\\)\\)?(((\.)|(\.\.)|([^\\/:\*\?"\|<>\. ](([^\\/:\*\?"\|<>\. ])|([^\\/:\*\?"\|<>]*[^\\/:\*\?"\|<>\. ]))?))\\)*[^\\/:\*\?"\|<>\. ](([^\\/:\*\?"\|<>\. ])|([^\\/:\*\?"\|<>]*[^\\/:\*\?"\|<>\. ]))?$
(assert (not (str.in_re X (re.++ (re.opt (re.++ (re.union (re.++ (re.union (re.range "a" "z") (re.range "A" "Z")) (str.to_re ":")) (str.to_re "\u{5c}")) (str.to_re "\u{5c}"))) (re.* (re.++ (re.union (str.to_re ".") (str.to_re "..") (re.++ (re.union (str.to_re "\u{5c}") (str.to_re "/") (str.to_re ":") (str.to_re "*") (str.to_re "?") (str.to_re "\u{22}") (str.to_re "|") (str.to_re "<") (str.to_re ">") (str.to_re ".") (str.to_re " ")) (re.opt (re.union (re.++ (re.* (re.union (str.to_re "\u{5c}") (str.to_re "/") (str.to_re ":") (str.to_re "*") (str.to_re "?") (str.to_re "\u{22}") (str.to_re "|") (str.to_re "<") (str.to_re ">"))) (re.union (str.to_re "\u{5c}") (str.to_re "/") (str.to_re ":") (str.to_re "*") (str.to_re "?") (str.to_re "\u{22}") (str.to_re "|") (str.to_re "<") (str.to_re ">") (str.to_re ".") (str.to_re " "))) (str.to_re "\u{5c}") (str.to_re "/") (str.to_re ":") (str.to_re "*") (str.to_re "?") (str.to_re "\u{22}") (str.to_re "|") (str.to_re "<") (str.to_re ">") (str.to_re ".") (str.to_re " "))))) (str.to_re "\u{5c}"))) (re.union (str.to_re "\u{5c}") (str.to_re "/") (str.to_re ":") (str.to_re "*") (str.to_re "?") (str.to_re "\u{22}") (str.to_re "|") (str.to_re "<") (str.to_re ">") (str.to_re ".") (str.to_re " ")) (re.opt (re.union (re.++ (re.* (re.union (str.to_re "\u{5c}") (str.to_re "/") (str.to_re ":") (str.to_re "*") (str.to_re "?") (str.to_re "\u{22}") (str.to_re "|") (str.to_re "<") (str.to_re ">"))) (re.union (str.to_re "\u{5c}") (str.to_re "/") (str.to_re ":") (str.to_re "*") (str.to_re "?") (str.to_re "\u{22}") (str.to_re "|") (str.to_re "<") (str.to_re ">") (str.to_re ".") (str.to_re " "))) (str.to_re "\u{5c}") (str.to_re "/") (str.to_re ":") (str.to_re "*") (str.to_re "?") (str.to_re "\u{22}") (str.to_re "|") (str.to_re "<") (str.to_re ">") (str.to_re ".") (str.to_re " "))) (str.to_re "\u{a}")))))
(check-sat)

(exit)
